
 102   30
  10   10   10   10   10   10   10   10   10   10   10   10   10   10   10   10   10   10   10   10   10   10   10   10   10   10   10   10   10   10

   0   0   0   0   0   0   0   0   0   0   0   0   0   0   0   0   0   0   0   0   0   0   0   0   0   0   0   0   0   0   0  29 2 3 4 5 6 7 8 9 10 11 12 13 14 15 16 17 18 19 20 21 22 26 30 32 35 37 39 41 46 
   6   0   1   0   0   0   0   0   0   0   0   3   0   0   0   0   0   0   0   0   0   0   0   0   0   0   0   1   0   0   0  19 101 77 75 73 72 70 69 63 60 55 54 50 48 42 40 38 34 31 23 
   5   0   0   1   0   1   0   0   1   0   0   0   0   0   0   0   0   0   0   0   1   1   0   0   0   1   0   0   0   4   0  14 101 75 74 72 63 57 52 48 45 44 42 38 34 29 
  10   0   0   0   0   0   0   0   7   0   0   6   0   0   0   0   0   0   0   0   0   0   0   0   0   0   0   0   0   0   3  14 99 76 73 72 69 62 60 58 56 55 48 47 36 28 
   2   0   0   0   0   0   0   0   0   0   0   0   0   0   0   1   2   0   0   0   0   0   1   0   0   0   0   0   0   0   0  13 98 76 75 63 62 61 59 54 53 52 47 27 23 
  10   1   0   6   0   0   0   1   0   0   4   0   0   0   1   0   6   0   0   0   0   0   0   1   0   0   0   0   0   0   0  18 101 100 99 98 94 74 73 68 63 62 59 58 57 54 52 51 50 31 
  10   0   0   0   2   0   0   0   0   0   0   0   0   0   0   0   0   1   0   0   0   0   0   0   2   0   0   0   0   0   0  16 101 99 74 70 68 59 57 56 54 53 52 51 44 42 38 33 
   9   4   0   0   9   0   0   0   4   5   0   3   0   0   0   0   0   0   0   0   0   0   0   0   0   0   0   0   0   0   0  15 100 76 75 73 72 69 63 62 60 59 54 51 47 31 23 
   8   0   0   0   0   7   0   0   6   0   0   0   0   2   0   0   0   0   0   2   0   0   0   8   0   0   0   0   0   2   0  15 101 99 97 75 72 69 68 67 60 54 53 50 42 40 25 
   6   0   0   0   0   5   0   0   0   0   0   0   2   0   0   0   0   0   0   0   0   0   0   0   0   0   0   7   0   0   3  13 100 77 75 74 71 70 67 62 60 42 38 29 24 
   9   0   0   0   0   5   0   0   0   0   6   0   5   5   0   0   0   0   0   0   0   0   0   6   0   0   0   7   0   0   0  13 99 97 73 72 70 69 63 62 57 54 53 42 23 
   7   0   0   0   0   0   0   4   0   0   0   0   0   0   0   0   0   0   0   0   0   0   0   0   0   0   0   0   0   0   0  19 98 97 76 75 74 73 72 71 69 68 67 63 59 58 57 56 54 53 48 
   8   0   0  10   0   5   0   0   9   0   0   0   0   0   0   0   0   0   0   6   0   0   5   4   0   0   0   0   0   0  10  10 98 73 72 69 61 60 54 53 34 23 
   3   0   0   0   0   0   0   0   0   0   0   0   0   0   0   0   0   0   0   0   0   0   0   0   0   0   1   0   0   0   4  11 99 98 75 72 69 63 60 54 53 40 23 
   3   8   0   0   0   0   0   8   0   0   9   0   6   0  10   0   0   4   0   0   0   0   0   0   0   0   4   0   0   6   0  19 100 98 97 96 95 90 76 74 72 71 68 65 63 61 59 58 56 53 47 
   2   7   0   0   0   0   0   0   0   0   0   0   0   0   0   0   0   7   0   5   9   0   6   0   0   0   0   0   0   0   0  14 101 100 98 88 76 72 70 67 63 59 56 53 52 40 
   1   0   0   0   0   0   1   0   0   0   0   0   0   0   0   0   0   0   0   0   0   0   0   0   0   0   0   0   0   0   0  18 99 97 96 89 84 76 73 71 69 68 67 64 62 61 60 58 57 45 
   9   0   0   0   2   0   0   0   0   0   0   0   0   0   0   0   0   0   0   0   0   0   9   0   0   0   0   0   0   0   0  12 99 97 73 72 70 68 61 60 55 53 48 47 
   6   0   0   0   0   0  10   0   0   0   0   0   0   0   0   0   0   0   0   0   0   0   0   0   0   0   0   0   0   0   0  13 98 94 92 77 75 72 69 68 67 60 57 54 38 
   5   0   0   0   6   8   0   0   0   0   0   0   0   5   0   0   7   0   0   0   0   0   0   0   0   0   0   0   0   0   7  19 99 97 96 94 90 89 86 84 75 73 72 70 69 68 67 65 63 58 42 
   7   0   0   0   0   0   0   6   9   0   0   0   0   0   0   0   0   0   1   0   0   0   0   0   0   0   0   0   4   9   0  14 99 97 88 87 84 75 73 72 67 63 60 57 54 43 
   4   0   0   0   0   0   0   0   0   0   0   5   0   0   0   0   0  10   0   0   0   0   0   4   0   0   0   6   0   0   0  10 100 96 89 73 66 62 58 56 52 43 
   3   2   0   0   0   0   0   0   0   0   0   0   0   0   0   0   0   5   0   0   0   0   0   0   0  10   0   0   0   6   3  17 96 95 94 93 90 89 86 85 74 71 68 67 66 65 64 58 56 
   1   0   0   0   0   0   0   0   0   0   0   0   8   0   0   0   0   0   0   6   0   0   0   0   0   5   0   0   0   0   0  14 95 94 92 91 88 86 76 73 72 69 68 65 54 53 
   4   0   0   0   0   0   0   0   0   0   0   0   0   0   8   0   0   0   0   0   0   0   0   0   7   0   0   0   0   0   0  11 95 93 73 71 70 66 64 61 58 56 55 
   2   0   0   0   0   8   0   0   0   0   0   0   0   0   0   0   0   0   0   0   7   0   0   0   0   0   0   7   5   0   0   8 92 90 77 70 67 66 52 38 
   5   0   0   0   0   0   0   0   0   0   0   0   0   0   0   0   0   8   0   0   8   0   0   0   0   0   0   0   0   0   0  17 99 97 96 95 92 90 88 87 84 73 72 70 69 67 65 64 57 
   8   0   0   0   0   7   4   0   0   0   0   0   0   0   0   0   0   0   0   0   0   0   0   0   0   4   0   0   0   0   0   8 88 70 68 66 59 54 53 42 
   3   0   0   8   0   0   0   0   0   7   0   0   0   0   0   9   0   0   0   0   0   0   0   0   0   0   7   0   0   0   0  14 99 98 95 94 91 88 87 86 80 79 73 66 56 54 
   7   0   0   0   0   0   0   0   0   0   0   0   0   0   0   0   0   0  10   0   0   0   0   0   0   0   0   0   0   0   0  10 99 98 97 88 86 72 62 60 57 53 
  10   0   0   5  10   0   0   0   4   0   0   0   5   5   0   0   0   0   0   8   0   0   0   0   0   0   0   0   0   0   7  11 97 95 91 90 88 85 67 65 61 56 53 
   9   0  10   0   0   7   0   8   0   0   0   0   0   0   0   0   0   0   0   0   5   0   0   0   0   0   0   0   0   0   0   9 97 90 89 86 70 69 60 53 49 
   2   0   0   0   0   0   0   0   0   0   0   0   0   0   0   0   0   0   0   0   0   0   0   0   0   0   7   0   0   0   6  16 96 95 94 91 89 88 87 85 84 83 71 69 65 62 61 60 
   4   0   0   0   0   0   0   0   0   0   0   0   0   0   0   0   0   0   0   0   0   0   0   0  10   0   0  10   0   0   0  14 100 99 93 92 91 88 87 85 84 68 66 65 64 62 
   2   0   0   0   0   0   0   0   0   0   0   0   8   0   0   6   0   0   0   0   0   0   0   8   0   0   0   0   0   0   0  13 98 97 95 94 89 86 84 80 79 74 63 62 58 
   1   0   0   0   0   0   0   0   0   0   0   8   0   0   0   6   0   0   0   0   0   0   0   0   0   0   0   0   0   5   0  10 101 97 94 85 83 74 70 65 61 53 
   2   0   0   0   0   0   0   0   0   0   0   0   0   0   6   0   0   0   0   0   0   0   0   0   0   0   0   0   0   7   0  10 101 88 86 85 70 68 67 66 65 53 
   3   6   0   0   0   0   0   0   0   0   0   0   0   0   0   0   0   0   0   0   0   0   5   0   0   0   0   0   0   5   0  11 97 93 89 86 85 84 82 81 79 65 58 
   5   0   0   0   0   0   0   0   0   5   0  10   8   0   0   0   0   8   0   0   0   0   0   0   0   0   7   0   0   9   0  11 95 94 91 89 87 84 79 73 72 66 61 
  10   6   0   0   0   0   0   0   0   0   5   0   0   0   0   0   0   0   0   0   0   0   0   0   0   0   4   9   0   0   0  10 96 95 90 89 86 84 82 65 64 57 
   4   0   0   0   0   4   0   0   0   0   0   0   0   0   8   0   0   0   0   0   0   0   0   0   6   0   8   0   0   0   0   9 99 92 89 86 82 80 71 66 58 
   4   0   0   0   0   0   0   0   0   0   0   7   0   0   0   0   0   0   0   0   0   0   0   0   6   0   0   0   5   0   0  12 98 93 92 91 87 85 83 82 80 79 78 64 
   2   0   0   0   0   0   0   0   0   0   0   0   0   0   0   0   0   0   0   0   0   0   4   0   0   0   0   0   0   0   0  11 95 94 91 90 86 85 80 79 78 70 64 
  10   0   0   0   0   0   0   6   0   0   0   0   0   0   0   0   0   0   0   0   6   0   0   0   0   0   0   0   0   0   0   8 94 90 86 84 81 67 65 58 
  10  10   0   6   0   0   7   0   0   4   7   0   9   4   0   0   0   0   0   0   0   0   8   0   0   0   4   0  10   0   0  10 98 93 92 85 83 81 79 78 70 65 
   4   6   9   0   0   0   6   0   0   0   0   0   0   0   0   0   0   0   0   4   0   0   0   0   0   0   0   0   0   0   0  10 96 90 88 86 85 82 80 78 68 64 
   5   0   0   0   0   0   5   0   0   0   0   0   0   0   0   0   0   0   0   0   0   0   0   0   0   4   0   0   0   0   0   6 89 88 82 78 67 57 
   5   5   0   0   0   0   0   0   0  10   0  10   0   0   0   0   0   8   0   0   0   0   0   0   0   3   0   0   0   0   0  10 95 94 92 88 85 84 83 79 78 65 
   8   0   0   0   0   9   0   0   0   0   0   0   8   0   0   0   0   0   0   0   0   0   0   0   0   0  10   0   0   0   0   8 93 88 85 84 83 81 68 65 
   5   0   0   0   0   0   0   0   0   0   0   0   0   0   0   0   0   6   0   0   0   0   0   5   0   0   5   0   0   0   0   9 93 91 88 87 86 82 81 80 78 
   6   0   0   0   0   0   0   0   0   8   5   0   0   0   0   7   0   0   0   0   0   7   0   0   0   7   5   4   0   0   0   7 92 89 87 84 81 65 61 
   9   0   0   0   0   0   0   0   0   0   0   3   7   7   0   0   2   0   0   0   0   0   0   0   0   0   0   0  10   0   0   6 87 86 84 71 69 60 
   9   0   0   0   0   0   0   6   0   0   6   0   8   8   0   4   0   0   0   0   0   0   0   0   0  10   0   0   0   0   0   7 93 87 84 80 79 78 64 
   1   7   0   0   0   0   0   0   0   0   0   0   0   0   9   6   0   0   0   0   7   0   0   0   0   0   0   0   0   0   0   6 96 90 89 85 78 64 
  10   0   0   0   0   0   0   0   0   0   0   0   0   0   2   0   0   0   0   0   0   0   0   5   0   4   0   0   0   3   0   6 94 91 89 85 84 74 
   5   0   0   0   0   0   8   0   0   0   3   0   0  10   0   0   0   0   0   0   0   0   0   0   7   0   0   8   5   0   7   6 92 84 83 82 81 78 
   9   0   8   0   0   7   0   0   0   0   0   0   0   0   0   0   0   0   0   0   0   0   0   0   0   0   0   0   0   0   0   5 91 81 80 79 66 
   9   5   0   0   0   0   0   0   0   0   0   0   0   0   0  10   0   0   0   0   9   0   0   0   0   0   0   0   0   0   0   4 88 87 83 78 
   5   0   0   0   0   0   0   8   0   0   0   0   0   0   0   0   2   0   5   4   6   0   0   7   0   0   0   0   0   0   0   4 92 86 82 78 
   8   0   0   0   0   4   0   0   0   0   0   0   0   0   5   0   8   0   6   0   0   0   0   0   0   0   0   0   0   0   0   2 79 78 
   1   0   0   0   0   0   0   0   0   0   0   0   0   0   0   2   0   0   0   0   0   0   0   0   0   0   0   0   5   0   0   2 86 80 
   9   0   0   0   0   0   0   0   0   0  10   0   0   0   0   5   0   0   0   0   0   0   0   0   0   0   0   7   0   0   0   2 90 82 
  10   0   0   0   0   0   0   0   9   0   0   0   4   0   5   0   0   0   0   0   0   9   6   0   0   0   0   0   0   0   0   2 82 81 
   6   0   0   0   0   0   0   0   0   0   0   0   0   0   0   0   0   0   9   0   0   0   0   0   7   0   8   0   0   0   0   1 81 
   9   0   0   0   0   0   0   6   0   0   0   4   0   0   0   6   0   0   0   0   0   0   0   0   0   0   0   0   0   0   0   1 80 
   6   0   0   0   0   0   0   0   0   5   0   0   0   0   0   0   0   0   8   0   0   0   0  10   0   7   0   0   4  10   0   1 83 
   4   0   0   0   0   7   0   0   0   5   0   0   0   8   0   0   0   0   6   0   0   0   0   0   0   0   0   0   0   0   0   1 83 
   4   0   0   0   9   0   8   0   0   0   0   0   0   0   0   0   0   0   0   0   0   0   0   0   0   0   0   0   0   0   0   1 79 
   6   0   0   0   0   0   0   0   0   0   0   6   0   3   0   7   4   5   0   0   0   0   0   0   0   0   0   0   0   0   0   1 82 
   9   0   0   0   0   0   0   0   0   0   0   0  10   5   0   0   0   0   0   0   0   0   0   0   0   0   0   0   0   0   0   1 82 
   2   0   0   0   0   0   0   0   0   0   0   5   2   0   0   0   0   0   0   0   0   0   0   0   0   0   0   0   0   0   0   1 79 
   5   8   0   0   5   0   0   0   4   0   5   0   0   0   0   7   0   0   0   0   3   0   0   0   0   0   0   0   0   0   0   1 85 
   9   0   0   4   7   0   0   0   0   0   0   0  10   6   6   0   0   0   0   8   0   0   0   6   0   0   0   0   0   0   0   1 78 
   1   0   0   0   0   0   0   0   0   0   0   0   4   0   7   0   6   0   0   6   0   8   7   0   0   0   0   0   0   0   0   1 78 
   7   7   4   0   0   0   0   0   0   0   0   0   2   0   5   0   8   0   0   0   0   0   0   0   0   0   8   0   0   0   0   1 79 
   6   0   0   0   0   0   0   0   0   0   0   0   0   0   0   0   0   0   0   0   0   6   0   6   5   9   0   0   0   0   0   1 81 
   3   0   0   4   0   0   0   4   0   0   0   0   3   0   0   0   0   0   0   0   0   0   0   0   0   0   0   0   0   6   0   1 85 
   4   0   0   0   0   0   0   0   0   0   0   0   0   0   0   0   0   0   0   0   0   0   0   0   0   0   6   0   0   0   0   1 102
   4   0   0   0   0   0   0   0   0   0   0   0   0   0   0   0   6   5   0   5   0   0   0   0   0   0   0   0   0   0   0   1 102
   6   0   0   0   0   0   0   0   5   0   0   0   0   0   0   0  10   0   0   0   0   0   0   0   0   0   0   5   0   0   8   1 102
   6   0   0   0   7   0   0   0   0   0   5   0   0   0   0   0   7   0   0  10   0   0   7   0   0   0   0   0   0   0   0   1 102
   9   0   0   0   0   0   0   0   0   0   0   0   0   0   0   0   0   0   0   0   0   0   0   0   0   0   0   0   0   0   0   1 102
   4   0   0   0   0   0   0   0   0   0   0   0   0   0   0   0   0   0   0   0   0   0   0   0   0   6   0   5   0   0   0   1 102
  10   0   0   0   0   0   0   0   0   0   0   0   0   5   0   0   0   0   0   0   0   0   0   0   0   0   0   0   6   0   0   1 102
   8   0   0   0   0   0   0   0   0   0   0   5   0   0   0   0   0   0   0   0   0   0   0   0   0   0   0   0   0   7   0   1 102
   9   0   0   0   0   0   0   0   0   0   0   0   0   0   0   7   0   0   0   0   0   0   0   0   0   0   0   0   8   0   0   1 102
   6   0   0   0   0   0   0   4   0   0   0   0   0   9   0   0   0   0   0   0   0   0   6   3   0   0   0   0   0   0   0   1 102
   9  10   0   5   0   0   0   0   8   0   0   0   0   0   0   0   0   0   0   0   0   0   0   0   0   0   0   0   0   0   0   1 102
   1   0   0   0   0   0   0   0   0   0   0   0   0   6   0   6   0   0   0   0   0   0   0   0   0   8   0   0   0   0   0   1 102
   9   0   0   0   0   0   0   0   5   5   0   0   0   0   0   0   0   0   0   0   0   0   0   0   0   6   0   5   7   0   8   1 102
   2   0   0  10   0   5   0   7   0   0   0   6   0   0   0   0   0   0   0   0   0   0   0   0   0   0   0   0   0   0   0   1 102
   7   0   0   0   4   0   0   0   0   0   7   0   5   0   0   0   0   0   0   0   6   6   0   0   0   0   0   0   0   0   0   1 102
   2   0   0   0   0   7   0   0   0   0   0   0   0   0   0   0   0   0   0   0   0   5   0   9   0   0   0   0   0   6   0   1 102
   8   5   5   0   0   0   0   0   6   0   0   0   0   0   0   0   0   0   0   0   0   0   0  10   4   0   0   0   0   0   0   1 102
   6   0   6   0   0   7   5   7   0   0   0   0   0   0   0   7  10   0   0   0   7   0   0   0   0   0   0   0   0   0   0   1 102
   1   0   0   0   0   0   0   7   0   0   0   0   0   0   0   0   0   0   0   0   0   0   0   0   0   0   0   0   0   0   0   1 102
   7   0   0   0   0   0   0   0   5   0   0   0   0  10   0   0   0   0   0   0   0   0   0   0   0   0   0   0   3   5   0   1 102
   6   0   0   7   0   2   0   8   0   0   0   9   0   0   0   0   0   5   0   8   4   0   0   0   0   0   0   0   0   0   0   1 102
  10   0   5   0   0   9   0   0   8   0   0   0   0   4   0   0   0   0   5   0   0   0   8   0   0   0   0   0   0   0   0   1 102
  10   5   0   0   5   0   0   0   0   0   0   0   0   0   0   0   0   0   4   0   0   0   0   4   0   0   0   0   0   6   0   1 102
   8   0   0   0   0   0   0   0   0   0   0   0   6   0   0   0   0   0   0   0   0   0   0   0   0   0   0   3   0   0   0   1 102
   0   0   0   0   0   0   0   0   0   0   0   0   0   0   0   0   0   0   0   0   0   0   0   0   0   0   0   0   0   0   0   0 
